11 9
47 20
4 9 3 1
8 19 3 1
1 20 1 3
1 1 2 4
3 15 1 1
0 16 3 4
11 15 1 5
18 12 1 2
5 9 3 3
9 6 3 4
6 18 3 5
16 7 1 5
2 17 3 1
13 11 1 5
0 19 3 2
0 4 3 2
9 4 1 3
1 14 1 1
15 13 1 2
1 20 1 5
20 16 3 1
20 8 2 5
14 20 2 3
10 20 2 2
8 19 1 5
15 18 1 5
13 19 1 3
3 19 1 4
7 0 2 2
0 0 3 1
5 9 3 3
12 16 2 5
8 3 3 1
10 13 3 5
12 18 1 1
5 17 1 1
8 18 2 4
0 5 2 1
11 9 2 3
5 16 2 5
2 4 3 5
8 13 1 2
7 13 1 4
16 18 1 5
2 20 3 2
17 18 1 5
15 3 3 1
